NAME: instance_1343
TYPE: TSP
DIMENSION: 20
EDGE_WEIGHT_TYPE: EUC_2D
NODE_COORD_SECTION
0 27.09 37.07
1 54.48 83.26
2 3.88 49.71
3 7.91 80.52
4 48.11 60.56
5 17.55 81.99
6 49.67 53.16
7 71.05 85.50
8 66.28 86.38
9 38.47 77.68
10 18.35 12.59
11 55.07 53.01
12 98.12 21.73
13 55.01 34.38
14 92.34 97.88
15 17.16 40.32
16 86.17 82.96
17 4.41 58.67
18 35.10 90.45
19 45.94 19.50
EOF
